#Generated by Multiwfn (http://sobereva.com/multiwfn)
&GLOBAL
  PROJECT Wendu
  PRINT_LEVEL LOW
  RUN_TYPE MD
&END GLOBAL

&FORCE_EVAL
  METHOD Quickstep
  &SUBSYS
    &CELL
      A     9.11656700     0.00000000     0.00000000
      B    -3.06195486     5.26561479     0.00000000
      C     0.01988862     0.01135981    24.72741595
      PERIODIC XYZ #Direction(s) of applied PBC (geometry aspect)
    &END CELL
    &COORD
      Ti         -0.00338416    0.04953026    5.00343758
      B          -0.01362405    1.79677860    3.34281306
      B           1.50984161    0.91897293    3.37435437
      Ti          3.03430215    0.05877241    4.98384061
      B           3.03071992    1.80536846    3.45114066
      B           4.54772203    0.93084786    3.43468259
      Ti          6.08450009    0.05162529    5.00802699
      B           6.06948790    1.81449170    3.37065243
      B           7.59845986    0.92902418    3.33615150
      Mg         -1.48750720    2.68529475    5.08065363
      B          -1.54223608    4.44734982    3.30339188
      B          -0.02272136    3.57204661    3.34394311
      Ti          1.49543823    2.67226928    4.99852498
      B           1.49433736    4.44642292    3.43648249
      B           3.02003008    3.56436705    3.46733019
      Ti          4.55943667    2.70465783    5.00590364
      B           4.54537490    4.44625189    3.38993610
      B           6.06214328    3.57273655    3.33487507
      Ti          0.00375402    0.05415747    8.40590232
      B           0.00025458    1.79757419    6.70998511
      B           1.49777367    0.93521952    6.59987565
      Mg          3.03323754    0.06481345    8.11193068
      B           3.02868513    1.82224963    6.53412323
      B           4.56166768    0.93824356    6.54438560
      Mg          6.07318655    0.07494626    8.44439005
      B           6.06702988    1.80956096    6.67403367
      B           7.60095446    0.92185450    6.70567957
      Ti         -1.52915311    2.69278836    8.40702000
      B          -1.56334894    4.44375212    6.65962030
      B          -0.00389572    3.55203083    6.64642773
      Mg          1.51039319    2.66010811    1.73000000
      B           1.50773321    4.43611340    6.55005955
      B           3.01929061    3.56326973    6.56704308
      Mg          4.48526943    2.68879394    8.43193781
      B           4.54087584    4.44355878    6.64086357
      B           6.05099109    3.57084970    6.70059883
      O           3.90286040    0.55736485   22.37006460
      O           1.48895570    5.07006670   21.03370651
      O           5.88254980    4.90670740   23.20741601
      O          -2.16638212    5.10310812   22.21453360
      O           2.51065116    1.86153651   18.38793779
      O           2.20932413    2.89715049   19.33556334
      O           3.21529033    1.44792652   14.84471743
      O           1.55436464    1.86907715   14.93130419
      O           4.82640555    4.44330231   15.57888331
      O           7.08873520    0.45268379   15.26791825
      O          -1.40859785    3.79266855   17.80749434
      O          -2.37887348    5.07460138   17.71054606
      O           5.48398346    2.69131774   12.96339628
      O           6.29832967    2.90493802   11.69438999
      O           8.51806374    0.05700064   20.58704729
      O           7.42301711    1.14691919   19.84031246
      O           0.83303003    1.23460203   12.85768163
      O          -0.20944636    1.49207090   14.15378917
      O           4.51979245    1.92202575   21.13172797
      O           3.68311160    3.13854365   20.56635217
    &END COORD
#   &VELOCITY #You can set initial atomic velocities in this section
#   &END VELOCITY
    &KIND Ti
      ELEMENT Ti
      BASIS_SET DZVP-MOLOPT-SR-GTH-q12
      POTENTIAL GTH-PBE
    &END KIND
    &KIND B
      ELEMENT B
      BASIS_SET DZVP-MOLOPT-SR-GTH-q3
      POTENTIAL GTH-PBE
    &END KIND
    &KIND Mg
      ELEMENT Mg
      BASIS_SET DZVP-MOLOPT-SR-GTH-q10
      POTENTIAL GTH-PBE
    &END KIND
    &KIND O
      ELEMENT O
      BASIS_SET DZVP-MOLOPT-SR-GTH-q6
      POTENTIAL GTH-PBE
    &END KIND
  &END SUBSYS

  &DFT
    BASIS_SET_FILE_NAME  BASIS_MOLOPT
    POTENTIAL_FILE_NAME  POTENTIAL
#   WFN_RESTART_FILE_NAME 3000-RESTART.kp
    CHARGE    0 #Net charge
    MULTIPLICITY    1 #Spin multiplicity
    &KPOINTS
      SCHEME MONKHORST-PACK  3  3  1
    &END KPOINTS
    &QS
      EPS_DEFAULT 1.0E-10 #Set all EPS_xxx to values such that the energy will be correct up to this value
#     EXTRAPOLATION USE_PREV_P #Use converged density matrix of last geometry as initial guess
    &END QS
    &POISSON
      PERIODIC XYZ #Direction(s) of PBC for calculating electrostatics
      PSOLVER PERIODIC #The way to solve Poisson equation
    &END POISSON
    &XC
      &XC_FUNCTIONAL PBE
      &END XC_FUNCTIONAL
      &VDW_POTENTIAL
        POTENTIAL_TYPE PAIR_POTENTIAL
        &PAIR_POTENTIAL
          PARAMETER_FILE_NAME dftd3.dat
          TYPE DFTD3
          REFERENCE_FUNCTIONAL PBE
          #CALCULATE_C9_TERM T #Calculate C9-related three-body term, more accurate for large system
        &END PAIR_POTENTIAL
      &END VDW_POTENTIAL
    &END XC
    &MGRID
      CUTOFF  300
      REL_CUTOFF  40
    &END MGRID
    &SCF
      MAX_SCF 128
      EPS_SCF 1.0E-05 #Convergence threshold of density matrix of inner SCF
#     SCF_GUESS RESTART #Use wavefunction from WFN_RESTART_FILE_NAME file as initial guess
      IGNORE_CONVERGENCE_FAILURE #Continue calculation even if SCF not converged, works for version >= 2024.1
      &DIAGONALIZATION
        ALGORITHM STANDARD #Algorithm for diagonalization
      &END DIAGONALIZATION
      &MIXING #How to mix old and new density matrices
        METHOD BROYDEN_MIXING #PULAY_MIXING is also a good alternative
        ALPHA 0.4 #Default. Mixing 40% of new density matrix with the old one
        NBROYDEN 8 #Default is 4. Number of previous steps stored for the actual mixing scheme
      &END MIXING
      &PRINT
        &RESTART OFF #Do not generate wfn file to suppress meaningless I/O cost
        &END RESTART
      &END PRINT
    &END SCF
  &END DFT
&END FORCE_EVAL

&MOTION
  &MD
    ENSEMBLE NVT
    STEPS 2 #Number of steps to run
    TIMESTEP 1.0 #Step size in fs. Decrease it properly for high temperature simulation
    TEMPERATURE PLACEHOLDER #Initial and maintained temperature (K)
#   COMVEL_TOL 0 #Uncomment this can remove translation motion of center-of-mass every step
    &THERMOSTAT
      TYPE CSVR
      &CSVR
        TIMECON 200 #Time constant in fs. Smaller/larger results in stronger/weaker temperature coupling
      &END CSVR
    &END THERMOSTAT
    &PRINT
      &PROGRAM_RUN_INFO
        &EACH
          MD     1 #Output frequency of MD information, 0 means never
        &END EACH
      &END PROGRAM_RUN_INFO
    &END PRINT
  &END MD
  &PRINT
    &TRAJECTORY
      &EACH
        MD   1 #Output frequency of coordinates, 0 means never
      &END EACH
      FORMAT xyz
    &END TRAJECTORY
    &VELOCITIES
      &EACH
        MD     0 #Output frequency of velocities, 0 means never
      &END EACH
    &END VELOCITIES
    &FORCES
      &EACH
        MD     0 #Output frequency of forces, 0 means never
      &END EACH
    &END FORCES
    &RESTART
      BACKUP_COPIES 0 #Maximum number of backing up restart file, 0 means never
      &EACH
        MD  1 #Frequency of updating last restart file, 0 means never
      &END EACH
    &END RESTART
    &RESTART_HISTORY OFF 
    &END RESTART_HISTORY
  &END PRINT
&END MOTION
