#Generated by Multiwfn
&GLOBAL
  PROJECT C
  PRINT_LEVEL MEDIUM
  RUN_TYPE CELL_OPT
&END GLOBAL
&FORCE_EVAL
  METHOD Quickstep
  &SUBSYS
    &CELL
      A     7.13360000     0.00000000     0.00000000
      B     0.00000000     7.13360000     0.00000000
      C     0.00000000     0.00000000     7.13360000
      PERIODIC XYZ #Direction(s) of applied PBC (geometry aspect)
    &END CELL
    &COORD
      C           0.00000000    0.00000000    0.00000000
      C           7.13360000    1.78340000    1.78340000
      C           1.78340000    7.13360000    1.78340000
      C           1.78340000    1.78340000    0.00000000
      C           2.67510000    0.89170000    2.67510000
      C           0.89170000    0.89170000    0.89170000
      C           0.89170000    2.67510000    2.67510000
      C           2.67510000    2.67510000    0.89170000
      C           3.56680000    0.00000000    0.00000000
      C           3.56680000    1.78340000    1.78340000
      C           5.35020000    7.13360000    1.78340000
      C           5.35020000    1.78340000    0.00000000
      C           6.24190000    0.89170000    2.67510000
      C           4.45850000    0.89170000    0.89170000
      C           4.45850000    2.67510000    2.67510000
      C           6.24190000    2.67510000    0.89170000
      C           7.13360000    3.56680000    0.00000000
      C           7.13360000    5.35020000    1.78340000
      C           1.78340000    3.56680000    1.78340000
      C           1.78340000    5.35020000    0.00000000
      C           2.67510000    4.45850000    2.67510000
      C           0.89170000    4.45850000    0.89170000
      C           0.89170000    6.24190000    2.67510000
      C           2.67510000    6.24190000    0.89170000
      C           3.56680000    3.56680000    0.00000000
      C           3.56680000    5.35020000    1.78340000
      C           5.35020000    3.56680000    1.78340000
      C           5.35020000    5.35020000    0.00000000
      C           6.24190000    4.45850000    2.67510000
      C           4.45850000    4.45850000    0.89170000
      C           4.45850000    6.24190000    2.67510000
      C           6.24190000    6.24190000    0.89170000
      C           7.13360000    7.13360000    3.56680000
      C           7.13360000    1.78340000    5.35020000
      C           1.78340000    0.00000000    5.35020000
      C           1.78340000    1.78340000    3.56680000
      C           2.67510000    0.89170000    6.24190000
      C           0.89170000    0.89170000    4.45850000
      C           0.89170000    2.67510000    6.24190000
      C           2.67510000    2.67510000    4.45850000
      C           3.56680000    7.13360000    3.56680000
      C           3.56680000    1.78340000    5.35020000
      C           5.35020000    0.00000000    5.35020000
      C           5.35020000    1.78340000    3.56680000
      C           6.24190000    0.89170000    6.24190000
      C           4.45850000    0.89170000    4.45850000
      C           4.45850000    2.67510000    6.24190000
      C           6.24190000    2.67510000    4.45850000
      C           7.13360000    3.56680000    3.56680000
      C           0.00000000    5.35020000    5.35020000
      C           1.78340000    3.56680000    5.35020000
      C           1.78340000    5.35020000    3.56680000
      C           2.67510000    4.45850000    6.24190000
      C           0.89170000    4.45850000    4.45850000
      C           0.89170000    6.24190000    6.24190000
      C           2.67510000    6.24190000    4.45850000
      C           3.56680000    3.56680000    3.56680000
      C           3.56680000    5.35020000    5.35020000
      C           5.35020000    3.56680000    5.35020000
      C           5.35020000    5.35020000    3.56680000
      C           6.24190000    4.45850000    6.24190000
      C           4.45850000    4.45850000    4.45850000
      C           4.45850000    6.24190000    6.24190000
      C           6.24190000    6.24190000    4.45850000
    &END COORD
    &KIND C
      ELEMENT C
      BASIS_SET DZVP-MOLOPT-SR-GTH-q4
      POTENTIAL GTH-PBE
    &END KIND
  &END SUBSYS
  &DFT
    BASIS_SET_FILE_NAME  BASIS_MOLOPT
    POTENTIAL_FILE_NAME  POTENTIAL
#   WFN_RESTART_FILE_NAME C-RESTART.kp
    CHARGE    0 #Net charge
    MULTIPLICITY    1 #Spin multiplicity
    &KPOINTS
      SCHEME MONKHORST-PACK  3  3  3
    &END KPOINTS
    &QS
      EPS_DEFAULT 1.0E-12 #Set all EPS_xxx to values such that the energy will be correct up to this value
#     EXTRAPOLATION USE_PREV_P #Use converged density matrix of last geometry as initial guess
    &END QS
    &POISSON
      PERIODIC XYZ #Direction(s) of PBC for calculating electrostatics
      PSOLVER PERIODIC #The way to solve Poisson equation
    &END POISSON
    &XC
      &XC_FUNCTIONAL
        &PBE
          PARAMETRIZATION PBESOL
        &END PBE
      &END XC_FUNCTIONAL
    &END XC
    &MGRID
      CUTOFF  400
      REL_CUTOFF  55
    &END MGRID
    &SCF
      MAX_SCF 128
      EPS_SCF 1.0E-06 #Convergence threshold of density matrix of inner SCF
#     SCF_GUESS RESTART #Use wavefunction from WFN_RESTART_FILE_NAME file as initial guess
IGNORE_CONVERGENCE_FAILURE #Continue calculation even if SCF not converged, works for version >= 2024.1
      &DIAGONALIZATION
        ALGORITHM STANDARD #Algorithm for diagonalization
      &END DIAGONALIZATION
      &MIXING #How to mix old and new density matrices
        METHOD BROYDEN_MIXING #PULAY_MIXING is also a good alternative
        ALPHA 0.4 #Default. Mixing 40% of new density matrix with the old one
        NBROYDEN 8 #Default is 4. Number of previous steps stored for the actual mixing scheme
      &END MIXING
      &PRINT
        &RESTART #Note: Use "&RESTART OFF" can prevent generating .wfn file
          BACKUP_COPIES 0 #Maximum number of backup copies of wfn file. 0 means never
        &END RESTART
      &END PRINT
    &END SCF
  &END DFT
  &PRINT
    &STRESS_TENSOR ON #Print stress tensor
    &END STRESS_TENSOR
  &END PRINT
  STRESS_TENSOR ANALYTICAL #Compute full stress tensor analytically
&END FORCE_EVAL
&MOTION
  &CELL_OPT
    MAX_ITER 400 #Maximum number of geometry optimization
    EXTERNAL_PRESSURE  1.01325E+00 #External pressure for cell optimization (bar)
    CONSTRAINT NONE #Constraint of cell length, can be: NONE, X, Y, Z, XY, XZ, YZ
    KEEP_ANGLES F #If T, then cell angles will be kepted
    KEEP_SYMMETRY F #If T, then cell symmetry specified by &CELL / SYMMETRY will be kepted
    KEEP_SPACE_GROUP F #If T, then space group will be detected and preserved
    TYPE DIRECT_CELL_OPT #Geometry and cell are optimized at the same time. Can also be GEO_OPT, MD
    #The following thresholds of optimization convergence are the default ones
    MAX_DR 3E-3 #Maximum geometry change
    RMS_DR 1.5E-3 #RMS geometry change
    MAX_FORCE 4.5E-4 #Maximum force
    RMS_FORCE 3E-4 #RMS force
    PRESSURE_TOLERANCE 100 #Pressure tolerance (w.r.t EXTERNAL_PRESSURE)
    OPTIMIZER BFGS #Can also be CG (more robust for difficult cases) or LBFGS
    &BFGS
      TRUST_RADIUS 0.2 #Trust radius (maximum stepsize) in Angstrom
#     RESTART_HESSIAN T #If read initial Hessian, uncomment this line and specify the file in the next line
#     RESTART_FILE_NAME to_be_specified
    &END BFGS
  &END CELL_OPT
  &PRINT
    &TRAJECTORY
      FORMAT pdb
    &END TRAJECTORY
    &RESTART
      BACKUP_COPIES 0 #Maximum number of backing up restart file, 0 means never
    &END RESTART
    &RESTART_HISTORY OFF 
    &END RESTART_HISTORY
  &END PRINT
&END MOTION
