#Generated by Multiwfn (http://sobereva.com/multiwfn)
&GLOBAL
  PROJECT H2O
  PRINT_LEVEL MEDIUM
  RUN_TYPE MD
&END GLOBAL

&FORCE_EVAL
  METHOD Quickstep
  &SUBSYS
    &CELL
      A    10.61650000     0.00000000     0.00000000
      B     0.00000000    10.61650000     0.00000000
      C     0.00000000     0.00000000    10.61650000
      PERIODIC XYZ #Direction(s) of applied PBC (geometry aspect)
    &END CELL
    &COORD
      O           2.25908504    6.81823479    3.89275205
      H           1.76297599    5.84098597    3.71683665
      H           3.28219714    6.64783997    4.28832284
      O           2.70848148   10.57997924    5.99959648
      H           2.70136843   10.20139485    4.95620686
      H           3.11849071    0.99487222    6.01615822
      O           1.75246566    0.35820071    1.99823763
      H           2.25175965    1.10496532    1.34617220
      H           1.64396503   10.01677391    1.44798444
      O           6.24770408    3.36585516    1.47399486
      H           6.56832238    2.42555175    1.96914842
      H           7.03491756    3.69793928    0.76544965
      O           9.83321463    1.72475659    8.63291314
      H           9.51981555    2.47311368    7.87542586
      H           0.18547026    1.27525398    8.33034289
      O           6.74243298    4.69589028    6.25067671
      H           7.56786586    5.40708962    6.46258205
      H           6.29324887    4.93380604    5.26397920
      O           6.49177742   10.36329648    2.05938867
      H           6.53551740    9.25450921    2.03348441
      H           5.84916068    0.07208604    2.90393125
      O           9.17541629    2.81804376    3.73955596
      H           8.27131515    2.57280261    4.33514161
      H           9.35621528    2.01575486    2.99406533
      O           2.33340054    4.56626282   10.28048777
      H           1.40254582    4.80672654    0.21869990
      H           2.97569879    5.46993930   10.22613130
      O           8.67675928    7.21030214    3.45567075
      H           7.98700528    8.07119412    3.57967147
      H           9.68861790    7.49238254    3.81440228
      O           9.78490956    8.23383891    8.30804824
      H           8.87040424    8.80638675    8.56868331
      H           9.59328173    7.62317782    7.40118681
      O           2.03847417    3.95464625    7.86268607
      H           0.99614620    4.33609710    7.84707981
      H           2.18986546    3.32869741    8.76678720
      O           4.67030452    0.20012103    8.20082159
      H           4.55787578   10.27549802    7.23822353
      H           3.66704527    0.45714649    8.60010815
      O           4.75205156    6.70665538    6.27467000
      H           5.66708770    7.07536642    6.78351884
      H           4.48886853    5.70265298    6.66822365
      O           6.68712102    1.50435805    5.58183720
      H           6.75846390    1.26899025    6.66418938
      H           6.47266772    0.57477731    5.01438528
      O           4.41752565    4.02089321    9.73766613
      H           5.17140332    4.79090796   10.00371562
      H           4.03150971    4.21846627    8.71593417
      O          10.05467482    4.20784977    1.48471752
      H           9.77439922    4.95769317    2.25367062
      H           9.22297821    4.09393473    0.75854892
      O           9.89149921    6.60802810    5.78025959
      H           9.00119952    7.11953107    5.35846605
      H          10.48251977    6.15502204    4.95726851
      O           4.37654596    5.00217630    2.01628568
      H           5.14634837    5.23807493    2.78046135
      H           3.50164020    4.52687560    2.50687414
      O           1.06908155    0.03365430    4.35871024
      H           0.79284022    0.21965539    5.41759995
      H           0.63720233    9.68256649    4.02811243
      O           1.65160891    7.87924781    7.77287047
      H           2.08147099    7.92882686    8.79502710
      H           1.10347901    6.92217033    7.64802043
      O           8.14837608    1.30179523   10.36244715
      H           7.32846379    0.57265401   10.53029402
      H           8.34042856    1.86489439    0.68306561
      O           8.13011570    7.33961111    9.61536405
      H           8.98315147    7.71055162   10.22092921
      H           8.41495640    6.38900970    9.11819336
      O           0.65960315   10.07304136    8.20453737
      H           1.34988798    0.08864778    7.60789006
      H          10.22772377   10.29598786    7.91608706
      O           6.77046055   10.02919522    7.05997250
      H           7.24183315   10.50056782    6.17243310
      H           7.50512235    9.36364684    7.55937266
      O           8.33076755    3.27051899    5.75913275
      H           8.80107850    2.32862311    5.40730194
      H           7.23121664    3.13324765    5.82399957
      O           9.17414231    7.86279223    1.52389241
      H           9.91177673    7.05530124    1.33385706
      H           9.70040222    8.76190361    1.90704190
      O           9.85710176    9.83756739    5.09305355
      H           9.51535662    0.25989192    5.28330122
      H          10.50354044    9.50144901    5.93048307
      O           3.24726886    7.61670176    1.39415878
      H           3.29568010    8.64480362    0.97831047
      H           2.22850952    7.42592325    1.79142821
      O           0.25447751    6.26766310    0.77160722
      H          10.60439719    7.17356905    0.18812438
      H           1.35593938    6.22137516    0.90027920
      O           4.19319900    2.69701566    3.57415089
      H           3.84126203    1.65967745    3.75356974
      H           4.76468520    2.73459807    2.62333715
      O          10.21689494    2.83120822    7.37952915
      H          10.27401171    3.67214119    8.10176964
      H           0.49823234    2.18774216    7.48898526
      O           2.41875720    0.33664922   10.09374354
      H           2.12945757    0.87055300    9.16458746
      H           3.37434836   10.41340636    9.92812614
      O           5.37141818    7.25881954    9.66313830
      H           4.43812166    7.39757720   10.24768279
      H           5.39148336    7.98169703    8.82103752
      O           4.06166057    2.40007216    5.73864291
      H           4.20933609    1.30381237    5.64702251
      H           4.92393270    2.84585899    6.27721795
      O           4.62911250   10.07251054    3.55758915
      H           4.32813472    9.24251257    4.23035675
      H           4.65915719    9.70709061    2.50984676
      O           0.83870350    4.84441511    4.24458286
      H           1.79737345    4.29352493    4.14648641
      H           0.55014703    4.89728528    5.31515073
      O           8.01025542    6.09450799    7.83593248
      H           7.92266929    7.19448356    7.71564754
      H           8.88643516    5.72813257    7.26136750
      O           7.41658074    1.83665450    7.93296729
      H           7.75790121    2.89278392    7.94952903
      H           8.29859956    1.16303758    7.91300828
      O           6.04556593    6.48742465    2.46164785
      H           6.84201575    5.73662578    2.27734542
      H           5.96350038    6.67990180    3.55175008
    &END COORD
#   &VELOCITY #You can set initial atomic velocities in this section
#   &END VELOCITY
    &KIND O
      ELEMENT O
      BASIS_SET DZVP-MOLOPT-SR-GTH-q6
      POTENTIAL GTH-PBE
    &END KIND
    &KIND H
      ELEMENT H
      BASIS_SET DZVP-MOLOPT-SR-GTH-q1
      POTENTIAL GTH-PBE
    &END KIND
  &END SUBSYS

  &DFT
    BASIS_SET_FILE_NAME  BASIS_MOLOPT
    POTENTIAL_FILE_NAME  POTENTIAL
#   WFN_RESTART_FILE_NAME H2O-RESTART.wfn
    CHARGE    0 #Net charge
    MULTIPLICITY    1 #Spin multiplicity
    &QS
      EPS_DEFAULT 1.0E-10 #Set all EPS_xxx to values such that the energy will be correct up to this value
      EXTRAPOLATION ASPC #Extrapolation for wavefunction during e.g. MD. ASPC is default, PS can also be used
      EXTRAPOLATION_ORDER 3 #Order for PS or ASPC extrapolation. 3 is default
    &END QS
    &POISSON
      PERIODIC XYZ #Direction(s) of PBC for calculating electrostatics
      PSOLVER PERIODIC #The way to solve Poisson equation
    &END POISSON
    &XC
      &XC_FUNCTIONAL PBE
      &END XC_FUNCTIONAL
    &END XC
    &MGRID
      CUTOFF  300
      REL_CUTOFF  40
    &END MGRID
    &SCF
      MAX_SCF 128
      EPS_SCF 1.0E-05 #Convergence threshold of density matrix of inner SCF
#     SCF_GUESS RESTART #Use wavefunction from WFN_RESTART_FILE_NAME file as initial guess
     IGNORE_CONVERGENCE_FAILURE #Continue calculation even if SCF not converged, works for version >= 2024.1
      &DIAGONALIZATION
        ALGORITHM STANDARD #Algorithm for diagonalization
      &END DIAGONALIZATION
      &MIXING #How to mix old and new density matrices
        METHOD BROYDEN_MIXING #PULAY_MIXING is also a good alternative
        ALPHA 0.4 #Default. Mixing 40% of new density matrix with the old one
        NBROYDEN 8 #Default is 4. Number of previous steps stored for the actual mixing scheme
      &END MIXING
      &PRINT
        &RESTART OFF #Do not generate wfn file to suppress meaningless I/O cost
        &END RESTART
      &END PRINT
    &END SCF
  &END DFT
&END FORCE_EVAL

&MOTION
   &MD
    ENSEMBLE NVT
    STEPS 1000 #Number of steps to run
    TIMESTEP 1.0 #Step size in fs. Decrease it properly for high temperature simulation
    TEMPERATURE 298.15 #Initial and maintained temperature (K)
#   COMVEL_TOL 0 #Uncomment this can remove translation motion of center-of-mass every step
    &THERMOSTAT
      TYPE NOSE
    &END THERMOSTAT
    &PRINT
      &PROGRAM_RUN_INFO
        &EACH
          MD     1 #Output frequency of MD information, 0 means never
        &END EACH
      &END PROGRAM_RUN_INFO
    &END PRINT
  &END MD
  &PRINT
      &CELL
         &EACH
            MD 1
         &END EACH
      &END CELL
    &TRAJECTORY
      &EACH
        MD   1 #Output frequency of coordinates, 0 means never
      &END EACH
      FORMAT xyz
    &END TRAJECTORY
    &VELOCITIES
      &EACH
        MD     1 #Output frequency of velocities, 0 means never
      &END EACH
    &END VELOCITIES
    &FORCES
      &EACH
        MD     1 #Output frequency of forces, 0 means never
      &END EACH
    &END FORCES
    &RESTART
      BACKUP_COPIES 1 #Maximum number of backing up restart file, 0 means never
      &EACH
        MD  1 #Frequency of updating last restart file, 0 means never
      &END EACH
    &END RESTART
    &RESTART_HISTORY OFF 
    &END RESTART_HISTORY
  &END PRINT
&END MOTION

