#Code for Evaporation of Solvent and Self Assembly of Nanoparticles
units lj
atom_style sphere 
boundary p p f
read_data data-equil.npp 
velocity all create 1.0 87287 loop geom
neighbor 1 multi
neigh_modify delay 0 one 20000 page 500000 #非常重要
comm_modify mode multi vel yes
pair_style hybrid/overlay colloid 12.5 dpd/tstat 1.0 1.0 3.0 122347 
pair_modify shift yes
pair_coeff * * dpd/tstat 1.0 1.0
pair_coeff 2 2 colloid 30.0 1.0 5.0 5.0 12.5 
pair_coeff 1 2 colloid 70.0 1.0 5.0 0.0 7.0 
pair_coeff 1 1 colloid 10.0 1.0 0.0 0.0 2.5
group solvent type 1 
group np type 2
thermo_style custom step temp epair etotal press vol density 
thermo_modify lost ignore flush yes 
thermo 1000
fix 1 all nve
fix 2 all langevin 1.01.0 0.1 437624
region vapor block 0.0 40.0 0.0 40.0 50.0 80.0 units box 
region substrate block 0.0 40.0 0.0 40.0 0.0 1.0 units box 
group bottom region substrate
fix 3 solvent evaporate 1000 1000 vapor 56789
compute cc1 all chunk/atom bin/1d z center 2.0
fix 4 all ave/chunk 100 10 1000 cc1 density/number norm sample file density.profile
fix 5 all ave/chunk 100 10 1000 cc1 temp norm sample file temp.profile
thermo_style custom step temp epair etotal press vol density 
thermo_modify lost ignore flush yes
thermo 1000
minimize 1.0e-4 1.0e-6 100 100
dump 1 all atom 1000 dump.npp-rearrange
timestep 0.005
run 50000
write_data data-equil.npp-rearrange