# SPC/E water box https://github.com/t3rodrig/LammpsTutorials/blob/master/liquid-vapor/in.spce.txt

variable Dt equal 2.0		# timestep, in fs
variable Nsteps equal 5e6	# 2 * 5e6 = 1e7 fs (10 ns). total number of steps in the simulation

variable Ndump equal 500	# 2 * 5e2 = 1e3 fs (1 ps). save coordinates every 1.0 ps

variable Nevery equal 100	# use input values every this many timesteps
variable Nfreq equal ${Nsteps}	# calculate averages every this many timesteps
variable Nrepeat equal 0.5*v_Nfreq/${Nevery}	# calculate averages every this many timesteps

variable Nprint equal 5000	# number of steps between printing thermo information

variable Text equal 300		# reference temperature, in K


units   real
atom_style  full

pair_style  lj/cut/coul/long 10.0 10.0
kspace_style  pppm 1.0e-4

bond_style  harmonic
angle_style harmonic
dihedral_style  none
improper_style  none

read_data "data.spce.old.txt"
velocity  all create ${Text} 432567 dist uniform

pair_coeff  1 1 0.15535 3.166 
pair_coeff  * 2 0.0000 0.0000 

bond_coeff  1 1000.00 1.000
angle_coeff 1 100.0 109.47

special_bonds   lj/coul 0.0 0.0 0.5

neighbor        2.0 bin
neigh_modify  every 1 delay 0 check yes

timestep	${Dt}

fix   1 all shake 0.0001 20 0 b 1 a 1
fix   2 all nvt temp ${Text} ${Text}  200.0


# Set up pressure tensor components
# c_thermo_press[1] is the XX component of the pressure tensor
variable xPress equal c_thermo_press[1] 
variable yPress equal c_thermo_press[2] 
variable zPress equal c_thermo_press[3]

# Compute surface tension
variable A_in_m equal 1e-10 # Angstrom in meter
variable atm_in_Pa equal 101325 # note: 1 Pa = 1 N/m^2
variable N_in_mN equal 1e3 # Newton in milliNewton
variable convFac equal ${A_in_m}*${atm_in_Pa}*${N_in_mN}
# lz is the box length in the z-dimention
variable st equal 0.5*lz*(v_zPress-0.5*(v_xPress+v_yPress))*${convFac} # in mN/m
fix st all ave/time 50 1 50 v_st file "out.surfTension.txt"

# Compute density profile
variable Dz equal 0.5 # Angstrom
compute CC1 all chunk/atom bin/1d z center ${Dz} units box
fix massDens all ave/chunk ${Nevery} ${Nrepeat} ${Nfreq} CC1 density/mass &
    file "out.massDens.zProfile.txt"
# Computes the symmetric per-atom stress tensor
compute CC2 all chunk/atom bin/1d z center ${Dz} units box
compute stpa all stress/atom NULL
fix stress all ave/chunk ${Nevery} ${Nrepeat} ${Nfreq} CC2 c_stpa[1] c_stpa[2] c_stpa[3] &
    c_stpa[4] c_stpa[5] c_stpa[6] file "out.stress.zProfile.txt"


# Stadardised output for easy loading by analysis scripts
# LAMMPS can output dcd, xtc, and xyz formats easily. MDAnalysis can read all of these.
dump  1 all custom ${Ndump} traj.lammpstrj id mol type x y z ix iy iz 
dump  2 all dcd ${Ndump} traj.dcd
#dump  3 all xtc ${Ndump} traj.xtc
#dump  4 all xyz ${Ndump} traj.xyz


# One can also get pressure tensor at any finite subvolume of the simulation
# box from atomic velocities, forces and positions without having to re-evaluate the potential.
dump  11 all custom ${Ndump} traj_xvf.lammpstrj id mol type x y z vx vy vz fx fy fz 

thermo_style custom step temp epair emol etotal press #this is equivalent to "thermo_style one"
thermo	${Nprint}

run	${Nsteps}


write_dump all atom "confout.lammpstrj" modify scale no sort id
write_data "data.spce.new.txt"
write_restart "rst.spce.new.bin"