#Generated by Multiwfn (http://sobereva.com/multiwfn)
&GLOBAL
  PROJECT Al_H2O_GAS
  PRINT_LEVEL MEDIUM
  RUN_TYPE MD
&END GLOBAL

&FORCE_EVAL
  METHOD Quickstep
  &SUBSYS
    &CELL
      A    12.14850000     0.00000000     0.00000000
      B     0.00000000    12.14850000     0.00000000
      C     0.00000000     0.00000000    20.76500000
      PERIODIC XYZ #Direction(s) of applied PBC (geometry aspect)
    &END CELL
    &COORD
      Al         12.14850000   12.14850000    7.50426335
      Al         12.14850000    2.02479050    1.43008555
      Al          2.02479050    0.00000000    1.43008555
      Al          2.02479050    2.02479050    7.50426335
      Al          4.04945951   12.14850000    7.50426335
      Al          4.04945950    2.02479050    1.43008555
      Al          6.07425000    0.00000000    1.43008555
      Al          6.07425000    2.02479050    7.50426335
      Al          8.09904050   12.14850000    7.50426335
      Al          8.09904049    2.02479050    1.43008555
      Al         10.12370951    0.00000000    1.43008555
      Al         10.12370951    2.02479050    7.50426335
      Al         12.14850000    4.04945951    7.50426335
      Al         12.14850000    6.07425000    1.43008555
      Al          2.02479049    4.04945950    1.43008555
      Al          2.02479050    6.07425000    7.50426335
      Al          4.04945951    4.04945951    7.50426335
      Al          4.04945951    6.07425000    1.43008555
      Al          6.07425000    4.04945950    1.43008555
      Al          6.07425000    6.07425000    7.50426335
      Al          8.09904049    4.04945951    7.50426335
      Al          8.09904049    6.07425000    1.43008555
      Al         10.12370951    4.04945950    1.43008555
      Al         10.12370951    6.07425000    7.50426335
      Al         12.14850000    8.09904049    7.50426335
      Al         12.14850000   10.12370951    1.43008555
      Al          2.02479050    8.09904049    1.43008555
      Al          2.02479050   10.12370951    7.50426335
      Al          4.04945951    8.09904049    7.50426335
      Al          4.04945951   10.12370951    1.43008555
      Al          6.07425000    8.09904049    1.43008555
      Al          6.07425000   10.12370951    7.50426335
      Al          8.09904050    8.09904049    7.50426335
      Al          8.09904050   10.12370951    1.43008555
      Al         10.12370951    8.09904049    1.43008555
      Al         10.12370951   10.12370951    7.50426335
      Al         12.14850000   12.14850000    3.45467305
      Al         12.14850000    2.02479049    5.47946820
      Al          2.02479050   12.14850000    5.47946820
      Al          2.02479050    2.02479049    3.45467305
      Al          4.04945951   12.14850000    3.45467305
      Al          4.04945951    2.02479049    5.47946820
      Al          6.07425000   12.14850000    5.47946820
      Al          6.07425000    2.02479049    3.45467305
      Al          8.09904050   12.14850000    3.45467305
      Al          8.09904049    2.02479049    5.47946820
      Al         10.12370951   12.14850000    5.47946820
      Al         10.12370951    2.02479049    3.45467305
      Al         12.14850000    4.04945950    3.45467305
      Al         12.14850000    6.07425000    5.47946820
      Al          2.02479050    4.04945951    5.47946820
      Al          2.02479050    6.07425000    3.45467305
      Al          4.04945951    4.04945950    3.45467305
      Al          4.04945951    6.07425000    5.47946820
      Al          6.07425000    4.04945951    5.47946820
      Al          6.07425000    6.07425000    3.45467305
      Al          8.09904049    4.04945950    3.45467305
      Al          8.09904049    6.07425000    5.47946820
      Al         10.12370951    4.04945951    5.47946820
      Al         10.12370951    6.07425000    3.45467305
      Al         12.14850000    8.09904049    3.45467305
      Al         12.14850000   10.12370951    5.47946820
      Al          2.02479050    8.09904049    5.47946820
      Al          2.02479050   10.12370951    3.45467305
      Al          4.04945951    8.09904049    3.45467305
      Al          4.04945951   10.12370951    5.47946820
      Al          6.07425000    8.09904049    5.47946820
      Al          6.07425000   10.12370951    3.45467305
      Al          8.09904050    8.09904049    3.45467305
      Al          8.09904050   10.12370951    5.47946820
      Al         10.12370951    8.09904049    5.47946820
      Al         10.12370951   10.12370951    3.45467305
      O           1.40230136    2.54292402   10.70331925
      H           0.45155975    2.60949780   10.13415060
      H           1.29697386    3.08790573   11.66453110
      O           3.36270480   11.53269254   15.57042760
      H           2.70777917    0.24114773   15.83268955
      H           3.71707655   11.64421576   14.52449455
      O           9.92544599    6.60987737   16.48304935
      H           9.79800822    5.60604681   16.93925640
      H           9.24002762    7.33016193   16.97663340
      O           1.32042047    2.55713777   15.23382695
      H           2.16498419    2.70741471   15.93838340
      H           0.79694160    1.60991922   15.48030750
      O           1.65462570    7.45541296   17.25301555
      H           2.13570630    6.52386599   16.88879745
      H           0.91636136    7.80820540   16.50298375
      O           8.81240042    1.43619567   16.91973730
      H           8.54331114    2.19936444   16.15994595
      H           8.53298492    1.80441671   17.92891630
      O          10.79612898    0.74774018   11.00378880
      C          11.88281230    0.14383824   11.86076035
      O           0.82002375   11.68782888   12.71856250
      O           4.62809256    0.53623479   12.00943775
      C           4.83340221    1.73966520   12.89797210
      O           5.03956226    2.94382452   13.78546820
      O           0.31440318    4.77970584   13.33175295
      C          11.91913632    6.16876533   13.09731610
      O          11.37524798    7.55746037   12.86142570
      O           6.68665589    5.34546149   13.59505315
      C           7.95811790    5.65160369   12.84024540
      O           9.23030881    5.95653104   12.08626825
      O           7.76362041    0.45228866   13.08880245
      C           9.03933439    0.10010364   13.81557745
      O          10.31577729   11.89775496   14.54214480
      O           3.88837040    8.69334511   11.69775510
      C           5.15387964    8.45511303   12.48620215
      O           6.41865998    8.21712392   13.27589510
      C           5.66107952   10.17023826   17.92434800
      O           5.18753099   11.58979049   17.72230455
      C           9.13676537    9.98497364   16.78954075
      O           7.74199608   10.29026544   16.29782555
      C           6.66491007    0.25997790   16.11010995
      O           5.90951634    1.00419501   15.03510590
      C          11.65393457    5.20769750   16.91745315
      O          12.02677203    4.43748260   18.16148430
      C           7.87514364    4.47465701   19.06496945
      O           7.89020778    5.31132420   17.80806400
      C           1.22493326    9.77711280   11.49218160
      O           2.00547438   10.97410451   11.00420410
      N          10.69529643    9.08829285   17.88800925
      N          11.08222616   10.41381569   18.42063150
      N           4.47477849    7.66133004   14.47528150
      N           3.22421190    6.87216348   14.53550000
      N           6.15163594    3.10624996   17.66229370
      N           5.57227398    2.55592292   16.41660135
      N           4.20957674    3.28009500   17.47084040
      N           4.55860314    2.28513285   18.50950570
      N           2.54717600    4.86559574   14.15529285
      N           2.28452543    4.11907041   12.90461690
      N           2.16133964    9.19264846   15.32976125
      N           3.19760669    9.38508071   16.36884185
    &END COORD
#   &VELOCITY #You can set initial atomic velocities in this section
#   &END VELOCITY
    &KIND Al
      ELEMENT Al
      BASIS_SET DZVP-MOLOPT-SR-GTH-q3
      POTENTIAL GTH-PBE
    &END KIND
    &KIND O
      ELEMENT O
      BASIS_SET DZVP-MOLOPT-SR-GTH-q6
      POTENTIAL GTH-PBE
    &END KIND
    &KIND H
      ELEMENT H
      BASIS_SET DZVP-MOLOPT-SR-GTH-q1
      POTENTIAL GTH-PBE
    &END KIND
    &KIND C
      ELEMENT C
      BASIS_SET DZVP-MOLOPT-SR-GTH-q4
      POTENTIAL GTH-PBE
    &END KIND
    &KIND N
      ELEMENT N
      BASIS_SET DZVP-MOLOPT-SR-GTH-q5
      POTENTIAL GTH-PBE
    &END KIND
  &END SUBSYS

  &DFT
    BASIS_SET_FILE_NAME  BASIS_MOLOPT
    POTENTIAL_FILE_NAME  POTENTIAL
#   WFN_RESTART_FILE_NAME Al_H2O_GAS-RESTART.kp
    CHARGE    0 #Net charge
    MULTIPLICITY    1 #Spin multiplicity
    &KPOINTS
      SCHEME MONKHORST-PACK  3  3  2
    &END KPOINTS
    &QS
      EPS_DEFAULT 1.0E-10 #Set all EPS_xxx to values such that the energy will be correct up to this value
#     EXTRAPOLATION USE_PREV_P #Use converged density matrix of last geometry as initial guess
    &END QS
    &POISSON
      PERIODIC XYZ #Direction(s) of PBC for calculating electrostatics
      PSOLVER PERIODIC #The way to solve Poisson equation
    &END POISSON
    &XC
      &XC_FUNCTIONAL PBE
      &END XC_FUNCTIONAL
      &VDW_POTENTIAL
        POTENTIAL_TYPE PAIR_POTENTIAL
        &PAIR_POTENTIAL
          PARAMETER_FILE_NAME dftd3.dat
          TYPE DFTD3(BJ)
          REFERENCE_FUNCTIONAL PBE
          #CALCULATE_C9_TERM T #Calculate C9-related three-body term, more accurate for large system
        &END PAIR_POTENTIAL
      &END VDW_POTENTIAL
    &END XC
    &MGRID
      CUTOFF  300
      REL_CUTOFF  40
    &END MGRID
    &SCF
      MAX_SCF 128
      EPS_SCF 1.0E-05 #Convergence threshold of density matrix of inner SCF
#     SCF_GUESS RESTART #Use wavefunction from WFN_RESTART_FILE_NAME file as initial guess
      IGNORE_CONVERGENCE_FAILURE #Continue calculation even if SCF not converged, works for version >= 2024.1
      &DIAGONALIZATION
        ALGORITHM STANDARD #Algorithm for diagonalization
      &END DIAGONALIZATION
      &MIXING #How to mix old and new density matrices
        METHOD BROYDEN_MIXING #PULAY_MIXING is also a good alternative
        ALPHA 0.4 #Default. Mixing 40% of new density matrix with the old one
        NBROYDEN 8 #Default is 4. Number of previous steps stored for the actual mixing scheme
      &END MIXING
      &PRINT
        &RESTART OFF #Do not generate wfn file to suppress meaningless I/O cost
        &END RESTART
      &END PRINT
    &END SCF
  &END DFT
&END FORCE_EVAL

&MOTION
  &MD
    ENSEMBLE NVT
    STEPS 5000 #Number of steps to run
    TIMESTEP 1.0 #Step size in fs. Decrease it properly for high temperature simulation
    TEMPERATURE 3000 #Initial and maintained temperature (K)
#   COMVEL_TOL 0 #Uncomment this can remove translation motion of center-of-mass every step
    &THERMOSTAT
      TYPE NOSE
    &END THERMOSTAT
    &PRINT
      &PROGRAM_RUN_INFO
        &EACH
          MD     1 #Output frequency of MD information, 0 means never
        &END EACH
      &END PROGRAM_RUN_INFO
    &END PRINT
  &END MD
  &PRINT
      &CELL
         &EACH
            MD 1
         &END EACH
      &END CELL
    &TRAJECTORY
      &EACH
        MD   1 #Output frequency of coordinates, 0 means never
      &END EACH
      FORMAT xyz
    &END TRAJECTORY
    &VELOCITIES
      &EACH
        MD     1 #Output frequency of velocities, 0 means never
      &END EACH
    &END VELOCITIES
    &FORCES
      &EACH
        MD     1 #Output frequency of forces, 0 means never
      &END EACH
    &END FORCES
    &RESTART
      BACKUP_COPIES 1 #Maximum number of backing up restart file, 0 means never
      &EACH
        MD  1 #Frequency of updating last restart file, 0 means never
      &END EACH
    &END RESTART
    &RESTART_HISTORY OFF 
    &END RESTART_HISTORY
  &END PRINT
&END MOTION
