#采用OPLSAA模型计算了硫化氢液体的表面张力。计算值为0.01057N/m。data文件加入文后QQ群联系群主获取。
#模型图如 SH模型.png
#----------------- Init Section -----------------
units real
dimension 3
boundary p p p
atom_style full
neighbor 3.0 bin
neigh_modify every 1 delay 0 check yes
#----------------- Forcefield
bond_style harmonic
angle_style harmonic
pair_style lj/cut/coul/long 11.0 11.0
pair_modify mix geometric
special_bonds lj/coul 0.0 0.0 0.5
kspace_style pppm 0.0001
#----------------- Atom Definition Section -----------------
read_data "system.data"
#----------------- Settings Section -----------------
pair_coeff 1 1 0.25 3.7
pair_coeff 2 2 0.0 0.0
bond_coeff 1 274.0 1.336
angle_coeff 1 35.0 92.07
#电荷必须设定
set type 1 charge -0.47
set type 2 charge 0.235
# ----------------- Run Section -----------------
minimize 1.0e-5 1.0e-7 1000 10000
reset_timestep 0
#可加可不加
#fix fShakeSPCE all shake 0.0001 10 0 b 1 a 1
velocity     all create 185 372748 rot yes dist gaussian loop local
timestep 1.0
thermo          1000
thermo_style  custom step temp
thermo_modify flush yes
# -----------------dump
dump mydump all custom 10000 dump.lammpstrj id mol type mass x y z
fix fxnvt all nvt temp 188 188 100.0
run 200000
compute 1 all stress/atom NULL
compute cc1 all chunk/atom bin/1d z 0.0 1.0 units box
fix 1 all ave/chunk 1 1000000 1200000 cc1 density/mass c_1[1] c_1[2] c_1[3] norm sample file press.profile
run 1000000