&GLOBAL
  PROJECT C
  PRINT_LEVEL MEDIUM
  RUN_TYPE ENERGY_FORCE
&END GLOBAL
&FORCE_EVAL
  METHOD Quickstep
  &SUBSYS
    &CELL
      A     7.13360000     0.00000000     0.00000000
      B     0.00000000     7.13360000     0.00000000
      C     0.00000000     0.00000000     7.13360000
      PERIODIC XYZ #Direction(s) of applied PBC (geometry aspect)
    &END CELL
    &COORD
      C           0.00000000    0.00000000    0.00000000
      C           7.13360000    1.78340000    1.78340000
      C           1.78340000    7.13360000    1.78340000
      C           1.78340000    1.78340000    0.00000000
      C           2.67510000    0.89170000    2.67510000
      C           0.89170000    0.89170000    0.89170000
      C           0.89170000    2.67510000    2.67510000
      C           2.67510000    2.67510000    0.89170000
      C           3.56680000    0.00000000    0.00000000
      C           3.56680000    1.78340000    1.78340000
      C           5.35020000    7.13360000    1.78340000
      C           5.35020000    1.78340000    0.00000000
      C           6.24190000    0.89170000    2.67510000
      C           4.45850000    0.89170000    0.89170000
      C           4.45850000    2.67510000    2.67510000
      C           6.24190000    2.67510000    0.89170000
      C           7.13360000    3.56680000    0.00000000
      C           7.13360000    5.35020000    1.78340000
      C           1.78340000    3.56680000    1.78340000
      C           1.78340000    5.35020000    0.00000000
      C           2.67510000    4.45850000    2.67510000
      C           0.89170000    4.45850000    0.89170000
      C           0.89170000    6.24190000    2.67510000
      C           2.67510000    6.24190000    0.89170000
      C           3.56680000    3.56680000    0.00000000
      C           3.56680000    5.35020000    1.78340000
      C           5.35020000    3.56680000    1.78340000
      C           5.35020000    5.35020000    0.00000000
      C           6.24190000    4.45850000    2.67510000
      C           4.45850000    4.45850000    0.89170000
      C           4.45850000    6.24190000    2.67510000
      C           6.24190000    6.24190000    0.89170000
      C           7.13360000    7.13360000    3.56680000
      C           7.13360000    1.78340000    5.35020000
      C           1.78340000    0.00000000    5.35020000
      C           1.78340000    1.78340000    3.56680000
      C           2.67510000    0.89170000    6.24190000
      C           0.89170000    0.89170000    4.45850000
      C           0.89170000    2.67510000    6.24190000
      C           2.67510000    2.67510000    4.45850000
      C           3.56680000    7.13360000    3.56680000
      C           3.56680000    1.78340000    5.35020000
      C           5.35020000    0.00000000    5.35020000
      C           5.35020000    1.78340000    3.56680000
      C           6.24190000    0.89170000    6.24190000
      C           4.45850000    0.89170000    4.45850000
      C           4.45850000    2.67510000    6.24190000
      C           6.24190000    2.67510000    4.45850000
      C           7.13360000    3.56680000    3.56680000
      C           0.00000000    5.35020000    5.35020000
      C           1.78340000    3.56680000    5.35020000
      C           1.78340000    5.35020000    3.56680000
      C           2.67510000    4.45850000    6.24190000
      C           0.89170000    4.45850000    4.45850000
      C           0.89170000    6.24190000    6.24190000
      C           2.67510000    6.24190000    4.45850000
      C           3.56680000    3.56680000    3.56680000
      C           3.56680000    5.35020000    5.35020000
      C           5.35020000    3.56680000    5.35020000
      C           5.35020000    5.35020000    3.56680000
      C           6.24190000    4.45850000    6.24190000
      C           4.45850000    4.45850000    4.45850000
      C           4.45850000    6.24190000    6.24190000
      C           6.24190000    6.24190000    4.45850000
    &END COORD
    &KIND C
      ELEMENT C
      BASIS_SET DZVP-MOLOPT-SR-GTH-q4
      POTENTIAL GTH-PBE
    &END KIND
  &END SUBSYS
  &DFT
    BASIS_SET_FILE_NAME  BASIS_MOLOPT
    POTENTIAL_FILE_NAME  POTENTIAL
#   WFN_RESTART_FILE_NAME C-RESTART.wfn
    CHARGE    0 #Net charge
    MULTIPLICITY    1 #Spin multiplicity
    &QS
      EPS_DEFAULT 1.0E-12 #Set all EPS_xxx to values such that the energy will be correct up to this value
    &END QS
    &POISSON
      PERIODIC XYZ #Direction(s) of PBC for calculating electrostatics
      PSOLVER PERIODIC #The way to solve Poisson equation
    &END POISSON
    &XC
      &XC_FUNCTIONAL PBE
      &END XC_FUNCTIONAL
      &VDW_POTENTIAL
        POTENTIAL_TYPE PAIR_POTENTIAL
        &PAIR_POTENTIAL
          PARAMETER_FILE_NAME dftd3.dat
          TYPE DFTD3
          REFERENCE_FUNCTIONAL PBE
          #CALCULATE_C9_TERM T #Calculate C9-related three-body term, more accurate for large system
        &END PAIR_POTENTIAL
      &END VDW_POTENTIAL
    &END XC
    &MGRID
      CUTOFF  400
      REL_CUTOFF  55
    &END MGRID
    &SCF
      MAX_SCF 128
      EPS_SCF 1.0E-06 #Convergence threshold of density matrix of inner SCF
#     SCF_GUESS RESTART #Use wavefunction from WFN_RESTART_FILE_NAME file as initial guess
IGNORE_CONVERGENCE_FAILURE #Continue calculation even if SCF not converged, works for version >= 2024.1
      &DIAGONALIZATION
        ALGORITHM STANDARD #Algorithm for diagonalization
      &END DIAGONALIZATION
      &MIXING #How to mix old and new density matrices
        METHOD BROYDEN_MIXING #PULAY_MIXING is also a good alternative
        ALPHA 0.4 #Default. Mixing 40% of new density matrix with the old one
        NBROYDEN 8 #Default is 4. Number of previous steps stored for the actual mixing scheme
      &END MIXING
      &PRINT
        &RESTART #Note: Use "&RESTART OFF" can prevent generating .wfn file
          BACKUP_COPIES 0 #Maximum number of backup copies of wfn file. 0 means never
        &END RESTART
      &END PRINT
    &END SCF
  &END DFT
  &PRINT
    &FORCES ON #Print atomic forces
    &END FORCES
  &END PRINT
&END FORCE_EVAL
