export
1.0
        4.5334000587         0.0000000000         0.0000000000
        0.0000000000         4.5334000587         0.0000000000
        0.0000000000         0.0000000000         4.5334000587
    C    H
    4    8
Direct
     0.879130000         0.928390000         0.324140000
     0.067180000         0.744800000         0.455310000
     0.578530000         0.439780000         0.889400000
     0.370290000         0.232420000         0.889020000
     0.730220000         0.069550000         0.448370000
     0.866760000         0.944180000         0.085410000
     0.079670000         0.729060000         0.694050000
     0.215720000         0.603500000         0.330710000
     0.766310000         0.430400000         0.038010000
     0.569900000         0.627650000         0.741000000
     0.378530000         0.044190000         0.037060000
     0.182770000         0.241900000         0.740170000
